120
150
23
48
91
36
37
52
54
42
44
91
27
76
90
82
76
60
85
44
91
58
91
99
48
81
99
98
100
52
23
51
29
48
59
86
39
74
77
44
36
51
91
74
23
98
23
100
94
48
82
52
59
74
68
38
91
33
31
89
91
96
52
58
22
81
96
54
21
27
100
30
30
20
38
76
100
85
91
85
31
89
89
64
96
76
98
76
31
82
59
21
29
100
54
20
52
91
61
64
74
99
59
30
51
32
29
68
74
90
91
100
50
59
29
100
68
50
91
31
59
82
